
Gurobi 9.5.0 (linux64) logging started Sat Nov  4 17:00:52 2023

Set parameter LogFile to value "/lustre1/scratch/348/vsc34888/JointResearch/05.Models/06.Benchmarking/D.Representative_days_based_on_RES_and_Demand/RTS24_ByStages_nc100/openStarNet_RTS24_ByStages_nc100.log"
Set parameter Method to value 2
Set parameter MIPFocus to value 1
Set parameter Presolve to value 2
Set parameter RINS to value 100
Set parameter MIPGap to value 0.01
Set parameter Threads to value 36
Set parameter TimeLimit to value 604800
Set parameter IterationLimit to value 760000000
Gurobi Optimizer version 9.5.0 build v9.5.0rc5 (linux64)
Thread count: 36 physical cores, 36 logical processors, using up to 36 threads
Optimize a model with 46621 rows, 26255 columns and 122762 nonzeros
Model fingerprint: 0xa5412e42
Variable types: 26216 continuous, 39 integer (39 binary)
Coefficient statistics:
  Matrix range     [1e-03, 2e+03]
  Objective range  [1e+00, 1e+00]
  Bounds range     [4e-04, 3e+00]
  RHS range        [4e-04, 3e+00]
Presolve removed 23821 rows and 11586 columns
Presolve time: 0.24s
Presolved: 22800 rows, 14669 columns, 79330 nonzeros
Variable types: 14630 continuous, 39 integer (39 binary)
Found heuristic solution: objective 59.7516261
Root relaxation presolved: 22800 rows, 14669 columns, 79330 nonzeros

Root barrier log...

Ordering time: 0.01s

Barrier statistics:
 Dense cols : 39
 AA' NZ     : 1.687e+05
 Factor NZ  : 5.653e+05 (roughly 20 MB of memory)
 Factor Ops : 1.780e+07 (less than 1 second per iteration)
 Threads    : 36

                  Objective                Residual
Iter       Primal          Dual         Primal    Dual     Compl     Time
   0   6.21493926e+05 -9.59778624e+07  4.49e+00 2.42e+02  5.99e+03     1s
   1   7.07438132e+04 -2.58726559e+07  4.30e-01 8.89e-09  7.75e+02     1s
   2   1.92014673e+04 -3.85136494e+06  1.92e-02 1.60e-09  8.65e+01     1s
   3   1.24644035e+04 -7.61782379e+05  4.17e-04 3.22e-10  1.67e+01     1s
   4   5.48123691e+03 -6.61563342e+04  2.14e-05 1.88e-11  1.55e+00     1s
   5   1.46121799e+03 -2.00128173e+04  4.79e-06 5.11e-12  4.63e-01     1s
   6   3.75192551e+02 -6.17898188e+03  4.35e-07 1.53e-12  1.41e-01     1s
   7   2.12600932e+02 -2.06283686e+03  6.09e-08 9.09e-13  4.91e-02     1s
   8   1.76490280e+02 -7.34912720e+02  3.17e-08 9.09e-13  1.97e-02     1s
   9   1.42272838e+02 -2.45659623e+02  1.70e-08 1.82e-12  8.37e-03     1s
  10   8.36471243e+01 -5.20027602e+01  2.58e-09 9.09e-13  2.93e-03     1s
  11   5.51493558e+01  1.56692255e+01  4.29e-10 9.09e-13  8.52e-04     1s
  12   5.10400452e+01  3.59617804e+01  2.34e-10 9.09e-13  3.25e-04     1s
  13   4.88859726e+01  3.85635092e+01  1.38e-10 9.09e-13  2.23e-04     1s
  14   4.78872714e+01  4.01858616e+01  9.41e-11 9.09e-13  1.66e-04     1s
  15   4.71309187e+01  4.26859179e+01  6.14e-11 9.09e-13  9.59e-05     1s
  16   4.63659236e+01  4.43875778e+01  2.81e-11 9.09e-13  4.27e-05     1s
  17   4.60308139e+01  4.48516653e+01  1.53e-11 1.82e-12  2.54e-05     1s
  18   4.59322868e+01  4.54187404e+01  1.22e-11 9.09e-13  1.11e-05     1s
  19   4.57963858e+01  4.55064327e+01  6.81e-12 9.09e-13  6.26e-06     1s
  20   4.56851769e+01  4.55871602e+01  2.35e-11 9.09e-13  2.12e-06     1s
  21   4.56339195e+01  4.56138389e+01  2.10e-11 9.09e-13  4.33e-07     1s
  22   4.56178196e+01  4.56176104e+01  1.32e-11 9.09e-13  4.51e-09     1s
  23   4.56177635e+01  4.56177635e+01  1.76e-11 1.82e-12  2.18e-14     1s

Barrier solved model in 23 iterations and 0.89 seconds (0.83 work units)
Optimal objective 4.56177635e+01


Root relaxation: objective 4.561776e+01, 1650 iterations, 0.58 seconds (0.37 work units)

    Nodes    |    Current Node    |     Objective Bounds      |     Work
 Expl Unexpl |  Obj  Depth IntInf | Incumbent    BestBd   Gap | It/Node Time

     0     0   45.61776    0    7   59.75163   45.61776  23.7%     -    1s
H    0     0                      55.4901021   45.61776  17.8%     -    1s
     0     0   46.49938    0    8   55.49010   46.49938  16.2%     -    1s
     0     0   47.44658    0    8   55.49010   47.44658  14.5%     -    2s
     0     0   47.55473    0    7   55.49010   47.55473  14.3%     -    2s
H    0     0                      55.2806282   47.55473  14.0%     -    2s
     0     0   48.74365    0    8   55.28063   48.74365  11.8%     -    3s
     0     0   48.74365    0    8   55.28063   48.74365  11.8%     -    3s
H    0     0                      54.5521735   48.74365  10.6%     -    3s
     0     0   49.09717    0    7   54.55217   49.09717  10.0%     -    3s
     0     0   49.09717    0    7   54.55217   49.09717  10.0%     -    4s
     0     0   49.09717    0    7   54.55217   49.09717  10.0%     -    4s
     0     0   49.09717    0    7   54.55217   49.09717  10.0%     -    4s
     0     0   49.13578    0    7   54.55217   49.13578  9.93%     -    4s
     0     0   49.13578    0    7   54.55217   49.13578  9.93%     -    4s
     0     0   49.13578    0    7   54.55217   49.13578  9.93%     -    4s
     0     0   49.18510    0    7   54.55217   49.18510  9.84%     -    4s
     0     0   49.26122    0    7   54.55217   49.26122  9.70%     -    4s
     0     0   49.26122    0    7   54.55217   49.26122  9.70%     -    5s
     0     0   49.26122    0    7   54.55217   49.26122  9.70%     -    5s
     0     0   49.34925    0    7   54.55217   49.34925  9.54%     -    5s
H    0     0                      53.6540514   49.34925  8.02%     -    9s
     0     2   49.34925    0    7   53.65405   49.34925  8.02%     -    9s
     3     8   51.33061    2    7   53.65405   49.34925  8.02%   854   10s
   120    23     cutoff    9        53.65405   52.52297  2.11%   302   17s
H  126    23                      53.4789620   52.57379  1.69%   298   17s

Cutting planes:
  Gomory: 5
  Implied bound: 54
  MIR: 631
  Relax-and-lift: 6

Explored 164 nodes (46361 simplex iterations) in 19.04 seconds (20.05 work units)
Thread count was 36 (of 36 available processors)

Solution count 6: 53.479 53.6541 54.5522 ... 59.7516

Optimal solution found (tolerance 1.00e-02)
Best objective 5.347896202146e+01, best bound 5.314398793633e+01, gap 0.6264%

Gurobi 9.5.0 (linux64) logging started Sat Nov  4 17:01:18 2023

Set parameter LogFile to value "/lustre1/scratch/348/vsc34888/JointResearch/05.Models/06.Benchmarking/D.Representative_days_based_on_RES_and_Demand/RTS24_ByStages_nc100/openStarNet_RTS24_ByStages_nc100.log"
Set parameter Method to value 2
Set parameter MIPFocus to value 1
Set parameter Presolve to value 2
Set parameter RINS to value 100
Set parameter MIPGap to value 0.01
Set parameter Threads to value 36
Set parameter TimeLimit to value 604800
Set parameter IterationLimit to value 760000000
No parameters matching 'relax_integrality' found
Gurobi Optimizer version 9.5.0 build v9.5.0rc5 (linux64)
Thread count: 36 physical cores, 36 logical processors, using up to 36 threads
Optimize a model with 46621 rows, 26216 columns and 107123 nonzeros
Model fingerprint: 0x9290f9d7
Coefficient statistics:
  Matrix range     [1e-03, 2e+03]
  Objective range  [1e+00, 1e+00]
  Bounds range     [4e-04, 3e+00]
  RHS range        [4e-04, 1e+01]
Presolve removed 37735 rows and 13014 columns
Presolve time: 0.05s
Presolved: 8886 rows, 13402 columns, 32074 nonzeros

Ordering time: 0.00s

Barrier statistics:
 AA' NZ     : 2.114e+04
 Factor NZ  : 9.225e+04 (roughly 8 MB of memory)
 Factor Ops : 1.351e+06 (less than 1 second per iteration)
 Threads    : 36

                  Objective                Residual
Iter       Primal          Dual         Primal    Dual     Compl     Time
   0   8.92534796e+05 -1.29598513e+08  1.46e+01 1.23e+02  1.19e+04     0s
   1   1.26661507e+05 -1.74059215e+07  1.68e+00 2.96e-12  1.20e+03     0s
   2   3.30353721e+04 -3.07285426e+06  1.23e-01 2.50e-12  1.51e+02     0s
   3   1.87006312e+04 -4.48531658e+05  5.71e-03 1.84e-12  2.06e+01     0s
   4   7.79310905e+03 -6.90022649e+04  4.49e-04 7.17e-12  3.37e+00     0s
   5   2.67995775e+03 -1.51705571e+04  1.19e-04 9.09e-13  7.83e-01     0s
   6   6.56923247e+02 -3.61528708e+03  2.03e-05 4.55e-13  1.87e-01     0s
   7   2.36463514e+02 -1.10694722e+03  3.59e-06 2.27e-13  5.89e-02     0s
   8   1.40143315e+02 -3.59520485e+02  1.05e-06 4.55e-13  2.19e-02     0s
   9   9.22397140e+01 -1.29616467e+02  3.44e-07 4.55e-13  9.73e-03     0s
  10   6.49133443e+01  1.68249013e+01  5.71e-08 4.55e-13  2.11e-03     0s
  11   5.67540402e+01  3.97482790e+01  1.20e-08 4.55e-13  7.45e-04     0s
  12   5.48616695e+01  4.85507364e+01  4.62e-09 4.55e-13  2.77e-04     0s
  13   5.40267538e+01  5.17126338e+01  1.73e-09 4.55e-13  1.01e-04     0s
  14   5.36935999e+01  5.28554167e+01  6.45e-10 4.55e-13  3.67e-05     0s
  15   5.35822379e+01  5.33533577e+01  2.98e-10 4.55e-13  1.00e-05     0s
  16   5.34866015e+01  5.34729528e+01  5.18e-10 6.82e-13  5.98e-07     0s
  17   5.34798986e+01  5.34781142e+01  7.87e-11 9.09e-13  7.82e-08     0s
  18   5.34789649e+01  5.34789535e+01  3.98e-09 2.27e-13  5.01e-10     0s
  19   5.34789620e+01  5.34789620e+01  1.82e-09 4.55e-13  5.01e-13     0s
  20   5.34789620e+01  5.34789620e+01  8.08e-12 9.09e-13  5.01e-16     0s

Barrier solved model in 20 iterations and 0.18 seconds (0.13 work units)
Optimal objective 5.34789620e+01

Crossover log...

    1190 DPushes remaining with DInf 0.0000000e+00                 0s
       0 DPushes remaining with DInf 0.0000000e+00                 0s

     444 PPushes remaining with PInf 0.0000000e+00                 0s
       0 PPushes remaining with PInf 0.0000000e+00                 0s

  Push phase complete: Pinf 0.0000000e+00, Dinf 2.4301586e-13      0s

Iteration    Objective       Primal Inf.    Dual Inf.      Time
     494    5.3478962e+01   0.000000e+00   0.000000e+00      0s

Use crossover to convert LP symmetric solution to basic solution...
Crossover log...

       0 DPushes remaining with DInf 0.0000000e+00                 0s

     294 PPushes remaining with PInf 0.0000000e+00                 0s
       0 PPushes remaining with PInf 0.0000000e+00                 0s

  Push phase complete: Pinf 0.0000000e+00, Dinf 2.7859026e-13      0s

Iteration    Objective       Primal Inf.    Dual Inf.      Time
     838    5.3478962e+01   0.000000e+00   0.000000e+00      0s

Solved in 838 iterations and 0.27 seconds (0.18 work units)
Optimal objective  5.347896202e+01

Gurobi 9.0.2 (win64) logging started Mon Nov  6 09:26:28 2023

Changed value of parameter LogFile to C:\Users\u0138303\OneDrive - KU Leuven\JointResearch\05. Models\06.Benchmarking\D.Representative_days_based_on_RES_and_Demand\RTS24_ByStages_nc100/openStarNet_RTS24_ByStages_nc100.log
   Prev:   Default: 
Changed value of parameter Method to 2
   Prev: -1  Min: -1  Max: 5  Default: -1
Changed value of parameter MIPFocus to 1
   Prev: 0  Min: 0  Max: 3  Default: 0
Changed value of parameter Presolve to 2
   Prev: -1  Min: -1  Max: 2  Default: -1
Changed value of parameter RINS to 100
   Prev: -1  Min: -1  Max: 2000000000  Default: -1
Parameter Crossover unchanged
   Value: -1  Min: -1  Max: 5  Default: -1
Changed value of parameter MIPGap to 0.01
   Prev: 0.0001  Min: 0.0  Max: inf  Default: 0.0001
Changed value of parameter Threads to 6
   Prev: 0  Min: 0  Max: 1024  Default: 0
Changed value of parameter TimeLimit to 604800.0
   Prev: inf  Min: 0.0  Max: inf  Default: inf
Changed value of parameter IterationLimit to 760000000.0
   Prev: inf  Min: 0.0  Max: inf  Default: inf
Gurobi Optimizer version 9.0.2 build v9.0.2rc0 (win64)
Optimize a model with 46622 rows, 26255 columns and 122763 nonzeros
Model fingerprint: 0x1b57a215
Variable types: 26216 continuous, 39 integer (39 binary)
Coefficient statistics:
  Matrix range     [1e-03, 3e+03]
  Objective range  [1e+00, 1e+00]
  Bounds range     [4e-04, 3e+00]
  RHS range        [4e-04, 3e+00]
Presolve removed 23822 rows and 11586 columns
Presolve time: 0.26s
Presolved: 22800 rows, 14669 columns, 79330 nonzeros
Variable types: 14630 continuous, 39 integer (39 binary)
Presolved: 22800 rows, 14669 columns, 79330 nonzeros

Root barrier log...

Ordering time: 0.01s

Barrier statistics:
 Dense cols : 39
 AA' NZ     : 1.687e+05
 Factor NZ  : 5.429e+05 (roughly 20 MBytes of memory)
 Factor Ops : 1.624e+07 (less than 1 second per iteration)
 Threads    : 5

                  Objective                Residual
Iter       Primal          Dual         Primal    Dual     Compl     Time
   0   6.32636746e+05 -9.61057978e+07  4.49e+00 2.42e+02  5.99e+03     0s
   1   8.00979140e+04 -2.59627698e+07  4.30e-01 6.94e-09  7.77e+02     1s
   2   2.50499107e+04 -2.87033486e+06  1.28e-02 1.96e-09  6.40e+01     1s
   3   1.45294457e+04 -2.23591039e+05  6.70e-05 1.29e-10  5.14e+00     1s
   4   2.84255192e+03 -2.26463976e+04  4.66e-06 1.14e-11  5.50e-01     1s
   5   7.96806695e+02 -6.43159288e+03  9.55e-07 2.84e-12  1.56e-01     1s
   6   2.80979150e+02 -2.36321415e+03  1.42e-07 1.53e-12  5.71e-02     1s
   7   1.82846104e+02 -9.92402753e+02  4.60e-08 1.07e-12  2.54e-02     1s
   8   1.22333838e+02 -2.94542746e+02  1.41e-08 1.47e-12  9.00e-03     1s
   9   9.31833359e+01 -7.32102354e+01  6.11e-09 9.38e-13  3.59e-03     1s
  10   6.04522659e+01  1.38206618e+01  1.28e-09 7.60e-13  1.01e-03     1s
  11   5.25151811e+01  3.21769061e+01  5.64e-10 1.07e-12  4.39e-04     1s
  12   5.00824578e+01  3.92272475e+01  3.60e-10 8.51e-13  2.34e-04     1s
  13   4.88816215e+01  4.18169476e+01  2.63e-10 4.95e-13  1.52e-04     1s
  14   4.74865884e+01  4.37321813e+01  1.48e-10 7.88e-13  8.10e-05     1s
  15   4.66492982e+01  4.45837448e+01  8.15e-11 8.08e-13  4.46e-05     1s
  16   4.58809774e+01  4.51091234e+01  1.97e-11 1.16e-12  1.67e-05     1s
  17   4.56638660e+01  4.55534315e+01  6.74e-12 1.75e-12  2.38e-06     1s
  18   4.56370280e+01  4.55857143e+01  2.22e-11 9.00e-13  1.11e-06     1s
  19   4.56254353e+01  4.56090589e+01  1.25e-11 6.31e-13  3.53e-07     1s
  20   4.56178505e+01  4.56175206e+01  1.34e-11 9.23e-13  7.12e-09     1s
  21   4.56177635e+01  4.56177635e+01  7.46e-12 1.16e-12  5.25e-14     1s

Barrier solved model in 21 iterations and 0.98 seconds
Optimal objective 4.56177635e+01


Root relaxation: objective 4.561776e+01, 1243 iterations, 0.82 seconds

    Nodes    |    Current Node    |     Objective Bounds      |     Work
 Expl Unexpl |  Obj  Depth IntInf | Incumbent    BestBd   Gap | It/Node Time

     0     0   45.61776    0    7          -   45.61776      -     -    1s
H    0     0                      59.7516261   45.61776  23.7%     -    1s
H    0     0                      55.4901021   45.61776  17.8%     -    1s
     0     0   46.44760    0    8   55.49010   46.44760  16.3%     -    2s
     0     0   46.49938    0    8   55.49010   46.49938  16.2%     -    3s
     0     0   47.50431    0    7   55.49010   47.50431  14.4%     -    4s
     0     0   47.93715    0    7   55.49010   47.93715  13.6%     -    5s
     0     0   47.93715    0    7   55.49010   47.93715  13.6%     -    5s
     0     0   49.04714    0    8   55.49010   49.04714  11.6%     -    6s
H    0     0                      55.2806282   49.04714  11.3%     -    7s
     0     0   49.09717    0    8   55.28063   49.09717  11.2%     -    7s
     0     0   49.09717    0    8   55.28063   49.09717  11.2%     -    7s
     0     0   49.09717    0    8   55.28063   49.09717  11.2%     -    7s
     0     0   49.13578    0    7   55.28063   49.13578  11.1%     -    9s
H    0     0                      55.2125368   49.13578  11.0%     -    9s
     0     0   49.18510    0    7   55.21254   49.18510  10.9%     -    9s
     0     0   49.18510    0    7   55.21254   49.18510  10.9%     -    9s
     0     0   49.18510    0    7   55.21254   49.18510  10.9%     -   10s
     0     0   49.18510    0    7   55.21254   49.18510  10.9%     -   11s
H    0     0                      53.4789620   49.18510  8.03%     -   23s
     0     2   49.18510    0    7   53.47896   49.18510  8.03%     -   23s
     3     8   51.43292    2    8   53.47896   49.18510  8.03%  1107   25s
    53    28     cutoff    9        53.47896   49.79447  6.89%   416   30s
   124    13   51.87632    6    4   53.47896   51.13630  4.38%   291   35s

Cutting planes:
  Gomory: 5
  Implied bound: 1
  MIR: 1343
  Relax-and-lift: 1

Explored 183 nodes (48471 simplex iterations) in 36.52 seconds
Thread count was 6 (of 8 available processors)

Solution count 5: 53.479 55.2125 55.2806 ... 59.7516

Optimal solution found (tolerance 1.00e-02)
Best objective 5.347896202145e+01, best bound 5.325378768534e+01, gap 0.4211%

Gurobi 9.0.2 (win64) logging started Mon Nov  6 09:27:07 2023

Changed value of parameter LogFile to C:\Users\u0138303\OneDrive - KU Leuven\JointResearch\05. Models\06.Benchmarking\D.Representative_days_based_on_RES_and_Demand\RTS24_ByStages_nc100/openStarNet_RTS24_ByStages_nc100.log
   Prev:   Default: 
Changed value of parameter Method to 2
   Prev: -1  Min: -1  Max: 5  Default: -1
Changed value of parameter MIPFocus to 1
   Prev: 0  Min: 0  Max: 3  Default: 0
Changed value of parameter Presolve to 2
   Prev: -1  Min: -1  Max: 2  Default: -1
Changed value of parameter RINS to 100
   Prev: -1  Min: -1  Max: 2000000000  Default: -1
Parameter Crossover unchanged
   Value: -1  Min: -1  Max: 5  Default: -1
Changed value of parameter MIPGap to 0.01
   Prev: 0.0001  Min: 0.0  Max: inf  Default: 0.0001
Changed value of parameter Threads to 6
   Prev: 0  Min: 0  Max: 1024  Default: 0
Changed value of parameter TimeLimit to 604800.0
   Prev: inf  Min: 0.0  Max: inf  Default: inf
Changed value of parameter IterationLimit to 760000000.0
   Prev: inf  Min: 0.0  Max: inf  Default: inf
No parameters matching 'relax_integrality' found
Gurobi Optimizer version 9.0.2 build v9.0.2rc0 (win64)
Optimize a model with 46622 rows, 26216 columns and 107124 nonzeros
Model fingerprint: 0x5e319908
Coefficient statistics:
  Matrix range     [1e-03, 3e+03]
  Objective range  [1e+00, 1e+00]
  Bounds range     [4e-04, 3e+00]
  RHS range        [4e-04, 1e+01]
Presolve removed 37736 rows and 13014 columns
Presolve time: 0.05s
Presolved: 8886 rows, 13402 columns, 32074 nonzeros

Ordering time: 0.00s

Barrier statistics:
 AA' NZ     : 2.529e+04
 Factor NZ  : 1.182e+05 (roughly 10 MBytes of memory)
 Factor Ops : 1.783e+06 (less than 1 second per iteration)
 Threads    : 6

                  Objective                Residual
Iter       Primal          Dual         Primal    Dual     Compl     Time
   0   4.28893452e+05 -5.18304826e+07  4.69e+00 4.87e+02  3.58e+03     0s
   1   6.72916562e+04 -8.14630425e+06  4.93e-01 3.18e-12  3.92e+02     0s
   2   2.18562976e+04 -1.13415099e+06  1.25e-02 2.50e-12  4.04e+01     0s
   3   1.08113007e+04 -8.65718926e+04  1.07e-14 3.18e-12  3.34e+00     0s
   4   1.76621480e+03 -1.12812644e+04  4.73e-14 6.54e-13  4.47e-01     0s
   5   4.12659610e+02 -2.73058481e+03  1.00e-13 8.02e-13  1.08e-01     0s
   6   2.87261298e+02 -6.96190947e+02  6.73e-14 6.36e-13  3.37e-02     0s
   7   1.72116581e+02 -2.28388670e+02  8.53e-14 6.07e-13  1.37e-02     0s
   8   9.70003827e+01 -5.77005355e+01  2.01e-13 7.48e-13  5.30e-03     0s
   9   7.23882103e+01  1.15900198e+01  1.73e-13 5.50e-13  2.08e-03     0s
  10   5.97147527e+01  3.72714908e+01  6.95e-13 8.32e-13  7.69e-04     0s
  11   5.51012447e+01  4.96011752e+01  1.02e-12 8.83e-13  1.88e-04     0s
  12   5.39777145e+01  5.20144246e+01  1.02e-12 7.80e-13  6.73e-05     0s
  13   5.37493219e+01  5.29152229e+01  1.71e-12 6.18e-13  2.86e-05     0s
  14   5.35915861e+01  5.32820233e+01  1.38e-12 8.37e-13  1.06e-05     0s
  15   5.35157075e+01  5.34263851e+01  4.30e-12 5.75e-13  3.06e-06     0s
  16   5.34809387e+01  5.34731147e+01  6.28e-12 7.69e-13  2.68e-07     0s
  17   5.34789969e+01  5.34788797e+01  6.13e-12 8.66e-13  4.01e-09     0s
  18   5.34789621e+01  5.34789619e+01  4.15e-12 1.03e-12  4.01e-12     0s

Barrier solved model in 18 iterations and 0.15 seconds
Optimal objective 5.34789621e+01

Crossover log...

       0 DPushes remaining with DInf 0.0000000e+00                 0s

     492 PPushes remaining with PInf 0.0000000e+00                 0s
       0 PPushes remaining with PInf 0.0000000e+00                 0s

  Push phase complete: Pinf 0.0000000e+00, Dinf 9.5777465e-13      0s

Iteration    Objective       Primal Inf.    Dual Inf.      Time
     589    5.3478962e+01   0.000000e+00   0.000000e+00      0s

Solved in 589 iterations and 0.21 seconds
Optimal objective  5.347896202e+01
